Cu  O  C  H
 1.0000000000000000
    20.3999999999999986    0.0000000000000000    0.0000000000000000
     0.0000000000000000   22.0836478000000014    0.0000000000000000
     0.0000000000000000    0.0000000000000000   30.8338966369999987
 Cu  O   C   H
 238   6  24   8
Selective dynamics
Cartesian
 17.8569701611621170  0.0131329967233813  5.3648875961251843   F   F   F
  6.3793462855049192  2.2236794863628107  5.3458069190981963   F   F   F
  3.8261073390732294  2.2222179726951850  5.3447262675390803   F   F   F
  1.2774768616345060  2.2220258159244097  5.3519719520478564   F   F   F
 15.3095297755747772  0.0122280565673055  5.3477834501426411   F   F   F
  1.2749000000001165  0.7451639999999321  1.2389999999999368   F   F   F
 10.2054732654326816  0.0227561616013799  5.3487747193474142   F   F   F
  7.6551394214756057  0.0203005998424803  5.3524950924766834   F   F   F
  5.0996677182586883  0.0136136421287094  5.3501241161901163   F   F   F
  8.9317005374104834  2.2271530509629667  5.3478671468607342   F   F   F
 12.7564732569887092  0.0195772582192085  5.3544209692671387   F   F   F
 11.4822323581098669  2.2259486094049978  5.3477075261637417   F   F   F
 17.8575692146420408  4.4316091470936740  5.3453623739608958   F   F   F
 16.5852877607071214  2.2200871014516030  5.3448669562496764   F   F   F
 19.1316045762866658  2.2232630740941217  5.3515545982269845   F   F   F
  0.0038867178210560  4.4308366039708798  5.3510086414538982   F   F   F
  2.5521544476320321  4.4313905612385600  5.3482902539847910   F   F   F
  5.1044771988761966  4.4356361039642334  5.3454862638935978   F   F   F
  7.6537451292522709  4.4279370801602767  5.3503637829741528   F   F   F
 10.2090672626107359  4.4289724781776005  5.3519416055792828   F   F   F
 12.7555270654984287  4.4314593256854478  5.3491333951659996   F   F   F
 15.3061849989374359  4.4318135048332126  5.3445487608201443   F   F   F
  2.5534213143157238  0.0141689570378867  5.3643181045473369   F   F   F
  1.2787026067184419  6.6402156229992944  5.3503677228323863   F   F   F
 14.0305037417735612  2.2236349420022563  5.3459349057174066   F   F   F
  0.0049261601530092  0.0082685956911370  5.3529799069067412   F   F   F
 12.7548799726167115 19.1458920292748793  3.2997318574377275   F   F   F
 16.5813051003096810 21.3545184307913054  3.2966632352349148   F   F   F
 15.3057497101921953 14.7328820712790360  3.2955454542104619   F   F   F
 17.8598453416682048 14.7383653542532738  3.3038298896100926   F   F   F
  1.2795412761195162 16.9406538738024608  3.2953849190038653   F   F   F
  6.3763949341096398 16.9379113338942595  3.3046118900612917   F   F   F
  8.9306978370419579 16.9452701530714371  3.2842145891992498   F   F   F
 11.4792348522925067 16.9398445777517743  3.2986385275622361   F   F   F
 14.0299938523860863 16.9388777971819557  3.3003511662430540   F   F   F
 16.5805433652663829 16.9414233832073045  3.2971917361434304   F   F   F
 19.1315353709582929 16.9383426791151379  3.3090565571905799   F   F   F
  0.0060647166366004 19.1492014144249083  3.2983700537843976   F   F   F
  2.5544495209234341 19.1487045921413959  3.2937472250004678   F   F   F
  5.1039282244538837 19.1489618861130921  3.2983093575629230   F   F   F
  7.6539990268265319 19.1517697680731374  3.2923786827710266   F   F   F
 10.2041821688087584 19.1481267944840532  3.2958572172125589   F   F   F
  3.8251763968512122  6.6391402267356625  5.3410470222225150   F   F   F
 15.3057434292427601 19.1471526462130726  3.2972007013110112   F   F   F
 17.8563781731237015 19.1485927365270143  3.2945697947994628   F   F   F
  1.2804516484863029 21.3556998966723341  3.2963310101704710   F   F   F
  3.8290838824814917 21.3553284673555055  3.2977518005514668   F   F   F
  6.3791677613745881 21.3544601174179398  3.3020810537434890   F   F   F
  8.9299774323972958 21.3543954431585554  3.2989382701486853   F   F   F
 11.4799010136742563 21.3537054021819692  3.2998014909940601   F   F   F
 14.0308809632884799 21.3533291849182234  3.3002286010254771   F   F   F
 19.1316425330918740 21.3550438900975088  3.2986476731689525   F   F   F
  6.3784895025168700  6.6390721485228994  5.3409560145034849   F   F   F
 12.7626980418033575  8.8459098907895228  5.3538350737939258   F   F   F
 11.4852904142470109  6.6355836179845236  5.3411849724019227   F   F   F
  3.8275092253847585 15.4725678473799686  5.3628617539951140   F   F   F
  6.3858685930660863 15.4799235526982439  5.3499479973083570   F   F   F
  8.9329475414446673 15.4892646652357939  5.3506426689642392   F   F   F
 11.4772748870864891 15.4838318908265133  5.3382714034751544   F   F   F
 14.0255583669486015 15.4769755279819652  5.3542263003831394   F   F   F
 16.5800758276519673 15.4661855031313458  5.3604038397407869   F   F   F
 19.1302599654177996 15.4648565521677330  5.3624661287258721   F   F   F
  0.0068707253356853 17.6703373034128930  5.3619220930839351   F   F   F
  2.5597977821268354 17.6789801640510014  5.3698764187999721   F   F   F
  5.1032516824344647 17.6793387452600967  5.3619665732433361   F   F   F
  7.6563070401155340 17.6914244316007796  5.3477234518031693   F   F   F
 10.2039472848066328 17.6930454741991738  5.3409015817691170   F   F   F
 12.7532287607684101 17.6860681527747801  5.3554185158440504   F   F   F
 15.3082492434675626 17.6790433605680022  5.3569823836063648   F   F   F
 17.8492880445486861 17.6771296833089622  5.3727171026034508   F   F   F
  1.2792745557596832 19.8859193886918924  5.3588306722549390   F   F   F
  3.8260189232980752 19.8836684656130878  5.3594789118610535   F   F   F
  6.3806601105365308 19.8921793771007209  5.3541340857691040   F   F   F
  8.9327550983063464 19.9009657981916845  5.3458432494279524   F   F   F
 11.4765990451390039 19.9004734619549595  5.3472014850600651   F   F   F
 14.0283987399791368 19.8905568361125944  5.3555643567933870   F   F   F
 16.5836122597577145 19.8839301738590386  5.3575581722592780   F   F   F
 19.1304931632964781 19.8841153578988887  5.3607056489011651   F   F   F
  1.2798614089733167 15.4663155692704173  5.3560083086192822   F   F   F
 17.8534965944567610 13.2523456149255185  5.3478933894105065   F   F   F
 15.3103628878816611 13.2587994012661223  5.3461673901558626   F   F   F
 12.7668914473232249 13.2713967790151983  5.3830145057641285   F   F   F
 14.0303052434707354  6.6361987052986038  5.3433881244420522   F   F   F
 16.5824338406536285  6.6402205387011195  5.3430002977996605   F   F   F
 19.1292174025442669  6.6409200061194422  5.3489169223696891   F   F   F
  0.0057221513692111  8.8487174620243074  5.3524393348762107   F   F   F
  2.5519832415128856  8.8453562626430902  5.3425728441455558   F   F   F
  5.0947691118297529  8.8489440991816846  5.3449276685019793   F   F   F
  7.6566707079922232  8.8526897807782561  5.3249915500752429   F   F   F
 10.2051313284585294  8.8514225022093491  5.3213606648071679   F   F   F
 12.7566347508400177 14.7302678901245532  3.2981179202471473   F   F   F
 15.3091630201157187  8.8444206575188726  5.3388384074428306   F   F   F
 17.8550555955755605  8.8466382739585416  5.3394354304693188   F   F   F
  8.9308907447236621  6.6243709970902662  5.3919038376688206   F   F   F
  1.2788093605859892 11.0535278761498645  5.3491422671347930   F   F   F
  6.3782233585396559 11.0636439228073797  5.2976078345434647   F   F   F
  8.9307375092515127 11.0598555929186073  5.2984627348397417   F   F   F
 11.4817783601767118 11.0601927271564939  5.3105990550628643   F   F   F
 14.0309184994363019 11.0519571378284880  5.3389520737026999   F   F   F
 16.5791027253658960 11.0505977802855213  5.3398103863208206   F   F   F
 19.1268863513192962 11.0545872934142615  5.3410636408426093   F   F   F
 -0.0009584127698540 13.2541535619463406  5.3522068079803216   F   F   F
  2.5520106085633647 13.2576654193366146  5.3519334860119585   F   F   F
  5.0934216117677025 13.2682064315940060  5.3757800737028703   F   F   F
  7.6526188940901907 13.2659232884390939  5.3079320288668121   F   F   F
 10.2050842127019834 13.2679072116598125  5.3095736983473731   F   F   F
  3.8236787115086033 11.0527453836908887  5.3340636650188493   F   F   F
 10.2077923342926589 14.7320347935171867  3.2851549043991639   F   F   F
  3.8283127710942941 16.9416764276535510  3.2981844511421450   F   F   F
  5.1032068159614319 14.7358402233373145  3.3037852108499113   F   F   F
  6.3790900000000077  9.5794699999999722  1.2355000000000054   F   F   F
  8.9287300000001046  9.5773099999999243  1.2430000000001016   F   F   F
 11.4778999999999680  9.5780199999999258  1.2394999999999552   F   F   F
 14.0327999999999342  9.5796100000000344  1.2362999999999946   F   F   F
 16.5821000000000218  9.5762800000000539  1.2412999999999865   F   F   F
 19.1323999999999614  9.5791699999999782  1.2384999999999131   F   F   F
  0.0008366650001249 11.7898000000000565  1.2402999999999444   F   F   F
  2.5487000000000584 11.7867999999999604  1.2421999999998938   F   F   F
  5.0981700000000068 11.7927999999999962  1.2333000000000904   F   F   F
  7.6526700000001471 11.7873999999999484  1.2376999999999239   F   F   F
 10.2058000000000817 11.7869999999999564  1.2404000000000810   F   F   F
 12.7544000000001105 11.7902000000000484  1.2392999999999041   F   F   F
 15.3063000000000802 11.7892000000000685  1.2386000000000497   F   F   F
 17.8560000000001367 11.7873999999999484  1.2370000000000694   F   F   F
  1.2734500000000584 13.9964000000000119  1.2415999999999574   F   F   F
  3.8267899999999222 13.9997999999999418  1.2410000000000192   F   F   F
  6.3765299999999057 14.0051999999999897  1.2367000000001003   F   F   F
  8.9260200000000349 14.0003999999999298  1.2389000000000170   F   F   F
 11.4813999999999652 13.9980999999999760  1.2400999999998934   F   F   F
 14.0312000000000516 14.0007999999999218  1.2413999999999028   F   F   F
 16.5818999999999619 13.9996999999999439  1.2425000000000832   F   F   F
 19.1309999999999931 14.0022000000000499  1.2355999999999252   F   F   F
  2.5524100000001311 16.2074000000000318  1.2400999999998934   F   F   F
  5.1029000000001137 16.2107999999999635  1.2421999999998938   F   F   F
  7.6496599999999884 16.2119999999999393  1.2386999999999659   F   F   F
  7.6475739291205329 14.7398027628406840  3.2972707584177154   F   F   F
 12.7546999999999073 16.2096999999999873  1.2441999999999798   F   F   F
 15.3044999999999956 16.2104999999999713  1.2412000000000702   F   F   F
 17.8583999999999605 16.2102999999999753  1.2410000000000192   F   F   F
  3.8201199999999225  9.5781599999999862  1.2362999999999946   F   F   F
  1.2736800000000252 18.4178000000000672  1.2376000000000076   F   F   F
  1.2744400000000418  9.5771299999999595  1.2434999999999068   F   F   F
 15.3078000000000785  7.3686999999999934  1.2383999999999968   F   F   F
  3.8282200000000897  0.7439550000000033  1.2389999999999368   F   F   F
  6.3791800000001651  0.7422369999999791  1.2436000000000398   F   F   F
  8.9270200000000326  0.7450440000000585  1.2400999999998934   F   F   F
 11.4808999999998207  0.7443619999999747  1.2404000000000810   F   F   F
 14.0307000000000510  0.7419940000000431  1.2410999999999355   F   F   F
 16.5809000000001099  0.7458030000000738  1.2394000000000389   F   F   F
 19.1332000000000484  0.7448710000000744  1.2397000000000062   F   F   F
  0.0003122280000500  2.9527500000000639  1.2397000000000062   F   F   F
  2.5518600000000440  2.9547199999999774  1.2415999999999574   F   F   F
  5.1020799999999911  2.9513400000000760  1.2407000000000519   F   F   F
  7.6536599999999853  2.9512499999999373  1.2413999999999028   F   F   F
 10.2046000000000241  2.9541799999999250  1.2400999999998934   F   F   F
 12.7538000000000817  2.9511699999999692  1.2399000000000608   F   F   F
 15.3071999999999058  2.9528999999999810  1.2402000000000282   F   F   F
 17.8577999999999335  2.9543800000000777  1.2412000000000702   F   F   F
  1.2760699999998313  5.1610100000000783  1.2431999999999341   F   F   F
  3.8244800000001105  5.1616499999999714  1.2404000000000810   F   F   F
  6.3794300000000179  5.1607700000000198  1.2404000000000810   F   F   F
  8.9281400000000932  5.1631499999999413  1.2431000000000196   F   F   F
 11.4776999999999099  5.1615199999999266  1.2399999999999789   F   F   F
 14.0319999999999929  5.1603299999999654  1.2378999999999767   F   F   F
 16.5816000000001651  5.1606700000000219  1.2420999999999776   F   F   F
 19.1309999999999931  5.1616599999999853  1.2407000000000519   F   F   F
  0.0020326600000993  7.3703799999999289  1.2402000000000282   F   F   F
  2.5483600000000477  7.3682200000000355  1.2423000000000268   F   F   F
  5.1010900000000090  7.3706899999999393  1.2389999999999368   F   F   F
  7.6559900000001218  7.3702400000000257  1.2418000000000085   F   F   F
 10.2015999999998819  7.3710700000000564  1.2457999999999547   F   F   F
 12.7527999999999384  7.3694999999999773  1.2383000000000806   F   F   F
 17.8596999999999042  7.3709700000000584  1.2452999999999363   F   F   F
  3.8293199999999721 18.4183000000000554  1.2389000000000170   F   F   F
 10.2073999999999643 16.2091999999999956  1.2371999999999019   F   F   F
  8.9269500000000548 18.4217999999999869  1.2362000000000783   F   F   F
 15.3051620048633730  5.8939599704203296  3.2967481068173576   F   F   F
 17.8549170569845437  5.8947038512799415  3.2927552715085273   F   F   F
  1.2791438350893791  8.1035331285514616  3.3006009532615810   F   F   F
  6.3776000000001725 18.4181000000000594  1.2452000000000218   F   F   F
  6.3844583256395326  8.1058296652062438  3.3024822496880883   F   F   F
  8.9247616423884804  8.1052304724835906  3.3140474343534532   F   F   F
 11.4806025794310997  8.1014874887916122  3.2971110473297358   F   F   F
 14.0289058217877081  8.1013248242012299  3.2937181641985305   F   F   F
 16.5770035605142105  8.0988081277710293  3.2901778540194346   F   F   F
 19.1421137042238918  8.1071800953368687  3.3034834577411871   F   F   F
  0.0050626491771138 10.3144598917097952  3.2999919901267631   F   F   F
  2.5513946815833122 10.3110666979783154  3.2969770668785152   F   F   F
  5.0958919973354764 10.3108942349538353  3.2751464432210078   F   F   F
 12.7558319476636495  5.8939354316018999  3.2945359779232124   F   F   F
  7.6542817317394665 10.3045865530556036  3.2964313663220537   F   F   F
 12.7572466917698950 10.3085322347005590  3.2910999431997165   F   F   F
 15.3030630719600929 10.3084623213177853  3.2906463342308516   F   F   F
 17.8564081155997698 10.3110537466394181  3.2838005095956433   F   F   F
  1.2776894273081574 12.5216187083711095  3.2983540329136574   F   F   F
  3.8244929231306655 12.5207116765277000  3.2922457550206214   F   F   F
  6.3738436589709861 12.5292749721916135  3.2726956901094315   F   F   F
  8.9298588009685691 12.5221115855726133  3.2834731186630730   F   F   F
 11.4824216397481838 12.5195904450236632  3.2930060681689657   F   F   F
 14.0304907808612356 12.5202158403281967  3.2940288541092926   F   F   F
 16.5779287983632031 12.5212925243521322  3.2874475919831863   F   F   F
 19.1291131961661307 12.5238394319037170  3.2749620331703326   F   F   F
  0.0048160746769816 14.7326827434161292  3.2994377531967398   F   F   F
  2.5518090740744843 14.7302564077940286  3.2948997110208751   F   F   F
 10.2073991148714498 10.3082212144931322  3.2913136086596655   F   F   F
 10.2054570657000649  5.8949168812491068  3.2983197611245885   F   F   F
  3.8247837474470598  8.1002046854889898  3.2874275462651852   F   F   F
  5.1040096877696435  5.8959879891750111  3.2948762161621712   F   F   F
  5.1042485772492681  1.4785637871773110  3.2976483277646746   F   F   F
  7.6539263299433591  5.8957086435738217  3.2998217193024182   F   F   F
  0.0064910432265289  1.4798968006377418  3.2989439862809142   F   F   F
 17.8583999999999605 20.6304000000000549  1.2379999999998912   F   F   F
 15.3037000000000543 20.6283999999999388  1.2389999999999368   F   F   F
 12.7553000000000818 20.6264999999999787  1.2433000000000725   F   F   F
  7.6549070707703546  1.4785064723164665  3.2985068643657094   F   F   F
 10.2058000000000817 20.6297000000000708  1.2386000000000497   F   F   F
  5.1043399999998620 20.6271999999999629  1.2425999999999995   F   F   F
  2.5530100000000151 20.6285999999999348  1.2363999999999145   F   F   F
 19.1346000000000203 18.4183000000000554  1.2418999999999247   F   F   F
 16.5792000000000534 18.4193000000000353  1.2386000000000497   F   F   F
 14.0296000000000234 18.4183000000000554  1.2431000000000196   F   F   F
 11.4824999999999928 18.4189000000000433  1.2412000000000702   F   F   F
  7.6512200000000909 20.6300000000000630  1.2402000000000282   F   F   F
 10.2049874033219385  1.4781072348103086  3.2965069367065141   F   F   F
  2.5549864967392697  1.4792990222092066  3.2961295069321981   F   F   F
 15.3062956908365706  1.4780664184829120  3.2967641706860888   F   F   F
  0.0062816952552245  5.8964307418284960  3.2997200252193384   F   F   F
 19.1323703135201981  3.6877256618532441  3.2974383373862981   F   F   F
 16.5822103074014038  3.6863290127816635  3.2981036034401221   F   F   F
 12.7559254657877617  1.4772856517063186  3.2975597275851261   F   F   F
 14.0313341129711056  3.6858401359375548  3.2952548025833828   F   F   F
 11.4805295592291188  3.6860090773830310  3.2961046052147207   F   F   F
  8.9298275760395729  3.6868117073826148  3.2976413008527494   F   F   F
  6.3794653726367025  3.6869765896522049  3.2969525026992006   F   F   F
  3.8300145594779029  3.6873540187793972  3.2971021493253385   F   F   F
  1.2802561326744124  3.6866646177179740  3.2988349774864218   F   F   F
 17.8568060897831451  1.4787162231226845  3.2961764742117090   F   F   F
  2.5542804062342919  5.8944600772322975  3.2994621717423360   F   F   F
  3.3065647393384801  9.9997695478993176  8.3548959499999533   T   T   T
 14.6934612434529903  9.9998200438117859  8.3548959499999533   T   T   T
  3.2661942401531903  7.7623680780634690  8.3548959499999533   T   T   T
 14.7338805334681808  7.7624527597475899  8.3548959499999533   T   T   T
  3.2659376468491441 12.2371403027911985  8.3548959499999533   T   T   T
 14.7341136649391515 12.2372111865060482  8.3548959499999533   T   T   T
  7.5714021897970696  9.9999624865380223  8.2049959499999137   T   T   T
 10.4286158830268576  9.9999746996671597  8.2048959499999530   T   T   T
  8.2679407943522722  8.7506911370870615  8.2055959500001041   T   T   T
  9.7320854095716349  8.7506975408026424  8.2055959500001041   T   T   T
  8.2679119581827614 11.2492674470051242  8.2055959500001041   T   T   T
  9.7320923541465394 11.2492732291851709  8.2055959500001041   T   T   T
  6.1398482574538207  9.9999118893756673  8.1983959499999504   T   T   T
 11.8601724090372329  9.9999393508714931  8.1983959499999504   T   T   T
  5.4291707515501741  8.7746119220939072  8.1923959499999643   T   T   T
 12.5708591071508877  8.7746407741600780  8.1924959499999250   T   T   T
  5.4290741387605035 11.2251536509929686  8.1925959500000989   T   T   T
 12.5709391356989286 11.2251889426364233  8.1927959500000203   T   T   T
  7.5208719196247866  7.5654382409899927  8.2030959500000211   T   T   T
 10.4791642684764597  7.5654521652768461  8.2029959500000604   T   T   T
  7.5207419099729425 12.4344656256799997  8.2030959500000211   T   T   T
 10.4792489570829943 12.4344799533270312  8.2029959500000604   T   T   T
  6.1249348278967322  7.5721815275054105  8.1989959499999276   T   T   T
 11.8750995360315841  7.5722058209120231  8.1989959499999276   T   T   T
  6.1247858141504299 12.4276143064054718  8.1991959500000622   T   T   T
 11.8752075570855489 12.4276418008181384  8.1991959500000622   T   T   T
  3.9551902816305535  8.7616248765107567  8.1749959499999836   T   T   T
 14.0448798841457005  8.7616385881992969  8.1758959500000561   T   T   T
  3.9550531338576747 11.2379995997741950  8.1755959499999609   T   T   T
 14.0449481531718945 11.2380282686768513  8.1763959500000727   T   T   T
  8.0271993530132733  6.6010715114890512  8.2018959500000665   T   T   T
  9.9728429946515842  6.6010806516043621  8.2017959499998927   T   T   T
  8.0269850964771816 13.3988819350336303  8.2017959499998927   T   T   T
  9.9729978933134138 13.3988921955462317  8.2017959499998927   T   T   T
  5.5592774066293877  6.6393381990895595  8.1986959500000456   T   T   T
 12.4407648370814599  6.6393689217681615  8.1986959500000456   T   T   T
  5.5590613122164072 13.3604211355946134  8.1988959499999670   T   T   T
 12.4409207627552476 13.3604542382964393  8.1988959499999670   T   T   T
