Cu  O  C  H
   1.00000000000000
    20.3999999999999986    0.0000000000000000    0.0000000000000000
     0.0000000000000000   22.0836478000000014    0.0000000000000000
     0.0000000000000000    0.0000000000000000   30.8338966369999987
   Cu   O    C    H
   238     6    24     8
Selective dynamics
Direct
  0.8753416745667693  0.0005946932699885  0.1739931757339903   F   F   F
  0.3127130532110272  0.1006934862619389  0.1733743542709831   F   F   F
  0.1875542813271167  0.1006273054533651  0.1733393067526023   F   F   F
  0.0626214147860082  0.1006186041385959  0.1735742976327401   F   F   F
  0.7504671458615064  0.0005537154313444  0.1734384568094285   F   F   F
  0.0624950980392214  0.0337427949742946  0.0401830496672702   F   F   F
  0.5002682973251282  0.0010304530215066  0.1734706054935984   F   F   F
  0.3752519324252717  0.0009192593554417  0.1735912640393877   F   F   F
  0.2499837116793486  0.0006164580350116  0.1735143689159955   F   F   F
  0.4378284577162006  0.1008507775134433  0.1734411712479869   F   F   F
  0.6253173165190518  0.0008865047294933  0.1736537237671740   F   F   F
  0.5628545273583256  0.1007962375402940  0.1734359944550974   F   F   F
  0.8753710399334338  0.2006737830284422  0.1733599368542542   F   F   F
  0.8130043019954485  0.1005308145446691  0.1733438695463505   F   F   F
  0.9378237537395435  0.1006746301258303  0.1735607620804345   F   F   F
  0.0001905253833883  0.2006388004417872  0.1735430556977633   F   F   F
  0.1251056101780392  0.2006638849419886  0.1734548933905060   F   F   F
  0.2502194705331462  0.2008561331957210  0.1733639548327162   F   F   F
  0.3751835847672709  0.2005075031200363  0.1735221417507731   F   F   F
  0.5004444736573888  0.2005543884003416  0.1735733134409330   F   F   F
  0.6252709345832557  0.2006669987593952  0.1734822380103296   F   F   F
  0.7503031862224248  0.2006830368320394  0.1733335498831110   F   F   F
  0.1251677114860641  0.0006416040124435  0.1739747060742971   F   F   F
  0.0626815003293331  0.3006847275928450  0.1735222695276235   F   F   F
  0.6877697912634133  0.1006914691875451  0.1733785051125309   F   F   F
  0.0002414784388733  0.0003744216429311  0.1736069874633799   F   F   F
  0.6252392143439565  0.8669714443315328  0.1070163753963627   F   F   F
  0.8128090735445923  0.9669832911748983  0.1069168543322903   F   F   F
  0.7502818485388332  0.6671398767407908  0.1068806026370268   F   F   F
  0.8754826147876571  0.6673881728114353  0.1071492821197779   F   F   F
  0.0627226115744861  0.7671130253128950  0.1068753961849040   F   F   F
  0.3125683791230216  0.7669888365949333  0.1071746438332326   F   F   F
  0.4377793057373509  0.7673220613974578  0.1065131218367696   F   F   F
  0.5627075907986523  0.7670763784664132  0.1069809166968483   F   F   F
  0.6877447966855925  0.7670326003470294  0.1070364607203942   F   F   F
  0.8127717335914895  0.7671478705255979  0.1069339945891485   F   F   F
  0.9378203613214851  0.7670083689305685  0.1073187925660903   F   F   F
  0.0002972900312059  0.8671213011477619  0.1069722095982684   F   F   F
  0.1252181137707566  0.8670988038552849  0.1068222827551395   F   F   F
  0.2501925600222492  0.8671104547371513  0.1069702411081224   F   F   F
  0.3751960307267908  0.8672376022983457  0.1067778984126235   F   F   F
  0.5002050082749392  0.8670726398056416  0.1068907136848054   F   F   F
  0.1875086469044689  0.3006360310969853  0.1732199820574536   F   F   F
  0.7502815406491550  0.8670285280592580  0.1069342853460284   F   F   F
  0.8753126555452795  0.8670937387675153  0.1068489602071878   F   F   F
  0.0627672376708972  0.9670367907548467  0.1069060796621741   F   F   F
  0.1877001903177202  0.9670199715535901  0.1069521585083777   F   F   F
  0.3127043020281661  0.9669806506069136  0.1070925641549039   F   F   F
  0.4377439917841812  0.9669777220029090  0.1069906379004308   F   F   F
  0.5627402457683459  0.9669464753092996  0.1070186337407080   F   F   F
  0.6877882825141413  0.9669294392984398  0.1070324857048774   F   F   F
  0.9378256143672488  0.9670070852197483  0.1069812133057013   F   F   F
  0.3126710540449480  0.3006329483538934  0.1732170305096759   F   F   F
  0.6256224530295782  0.4005638004600627  0.1736347220989742   F   F   F
  0.5630044320709331  0.3004749794091808  0.1732244560355909   F   F   F
  0.1876230012443543  0.7006346047313770  0.1739274739463141   F   F   F
  0.3130327741699048  0.7009676885309801  0.1735086570566153   F   F   F
  0.4378895853649354  0.7013906762829194  0.1735311865365574   F   F   F
  0.5626115140728700  0.7011446673600048  0.1731299636345440   F   F   F
  0.6875273709288550  0.7008341949730763  0.1736474102970860   F   F   F
  0.8127488150809796  0.7003455970318129  0.1738477592646674   F   F   F
  0.9377578414420498  0.7002854189771881  0.1739146430909102   F   F   F
  0.0003368002615503  0.8001548233083540  0.1738969990140546   F   F   F
  0.1254802834375894  0.8005461925566024  0.1741549724323903   F   F   F
  0.2501593961977662  0.8005624299650407  0.1738984415874683   F   F   F
  0.3753091686331160  0.8011096985345318  0.1734365109528824   F   F   F
  0.5001934943532689  0.8011831031918177  0.1732152651559531   F   F   F
  0.6251582725866882  0.8008671535132308  0.1736860760380736   F   F   F
  0.7504043746797819  0.8005490542449252  0.1737367951470006   F   F   F
  0.8749651002229726  0.8004623983954744  0.1742471010347870   F   F   F
  0.0627095370470414  0.9004816400256104  0.1737967385485888   F   F   F
  0.1875499472204964  0.9003797128847992  0.1738177621517281   F   F   F
  0.3127774563988481  0.9007651071622647  0.1736444196074842   F   F   F
  0.4378801518777635  0.9011629771686387  0.1733755325304216   F   F   F
  0.5625783845656400  0.9011406830150150  0.1734195826110252   F   F   F
  0.6876666049009401  0.9006916346543363  0.1736908059283948   F   F   F
  0.8129221695959643  0.9003915636554893  0.1737554690324288   F   F   F
  0.9377692727106108  0.9003999492284436  0.1738575474910462   F   F   F
  0.0627383043614387  0.7003514867353786  0.1737052041029443   F   F   F
  0.8751714016890588  0.6000976711340940  0.1734420223421651   F   F   F
  0.7505079847000786  0.6003899139011892  0.1733860450106235   F   F   F
  0.6258280121236908  0.6009603530724306  0.1745810647657393   F   F   F
  0.6877600609544459  0.3005028320230068  0.1732959083098891   F   F   F
  0.8128644039536113  0.3006849501874953  0.1732833303783039   F   F   F
  0.9377067354188355  0.3007166237327610  0.1734752173992504   F   F   F
  0.0002804976161386  0.4006909339508837  0.1735894557178170   F   F   F
  0.1250972177212191  0.4005387308632535  0.1732694672698187   F   F   F
  0.2497435839132223  0.4007011966194156  0.1733458385563935   F   F   F
  0.3753269954898144  0.4008708099745277  0.1726992735548478   F   F   F
  0.5002515357087489  0.4008134245923500  0.1725815172650513   F   F   F
  0.6253252328843146  0.6670215004119271  0.1069640324437415   F   F   F
  0.7504491676527323  0.4004963644420556  0.1731483526164652   F   F   F
  0.8752478233125274  0.4005967833791715  0.1731677151716866   F   F   F
  0.4377887619962593  0.2999672453157984  0.1748693621551141   F   F   F
  0.0626867333620567  0.5005299838258566  0.1734825257446033   F   F   F
  0.3126580077715531  0.5009880624344731  0.1718111692761681   F   F   F
  0.4377812504535044  0.5008165178634414  0.1718388952657293   F   F   F
  0.5628322725576851  0.5008317841021039  0.1722324984604882   F   F   F
  0.6877901225213847  0.5004588570656594  0.1731520390224048   F   F   F
  0.8127011139885241  0.5003973021289312  0.1731798756798426   F   F   F
  0.9375924682019274  0.5005779567546895  0.1732205210298829   F   F   F
  0.9999530189818699  0.6001795392673444  0.1735819144427495   F   F   F
  0.1250985592433054  0.6003385645072896  0.1735730501084234   F   F   F
  0.2496775299886096  0.6008158865671618  0.1743464388231786   F   F   F
  0.3751283771612819  0.6007125004248195  0.1721460018938217   F   F   F
  0.5002492261128424  0.6008023371781803  0.1721992442556228   F   F   F
  0.1874352309563037  0.5004945507096394  0.1729934989344812   F   F   F
  0.5003819771712088  0.6671015099922570  0.1065436179888124   F   F   F
  0.1876623907399164  0.7671593289788632  0.1069661901630781   F   F   F
  0.2501571968608545  0.6672738288887814  0.1071478331053797   F   F   F
  0.3127004901960788  0.4337811437112293  0.0400695382275273   F   F   F
  0.4376828431372601  0.4336833337832857  0.0403127770269691   F   F   F
  0.5626421568627435  0.4337154842688591  0.0401992655872263   F   F   F
  0.6878823529411733  0.4337874832435986  0.0400954836994671   F   F   F
  0.8128480392156874  0.4336366929380233  0.0402576428990926   F   F   F
  0.9378627450980375  0.4337675589990155  0.0401668337472998   F   F   F
  0.0000410129902022  0.5338701335383575  0.0402252110591661   F   F   F
  0.1249362745098068  0.5337342864162125  0.0402868315550222   F   F   F
  0.2499102941176474  0.5340059806604955  0.0399981881796947   F   F   F
  0.3751308823529484  0.5337614558406401  0.0401408882753600   F   F   F
  0.5002843137254942  0.5337433428910217  0.0402284542431630   F   F   F
  0.6252156862745153  0.5338882464879759  0.0401927792192396   F   F   F
  0.7503088235294157  0.5338429641139300  0.0401700769312967   F   F   F
  0.8752941176470657  0.5337614558406401  0.0401181859874171   F   F   F
  0.0624240196078460  0.6337902201102850  0.0402673724510763   F   F   F
  0.1875877450980354  0.6339441801820414  0.0402479133471161   F   F   F
  0.3125749999999954  0.6341887050018968  0.0401084564354406   F   F   F
  0.4375500000000017  0.6339713496064689  0.0401798064832732   F   F   F
  0.5628137254901944  0.6338672001461632  0.0402187246911794   F   F   F
  0.6878039215686300  0.6339894625560873  0.0402608860830824   F   F   F
  0.8128382352941159  0.6339396519446368  0.0402965611070130   F   F   F
  0.9377941176470586  0.6340528578797588  0.0400727814115243   F   F   F
  0.1251181372549084  0.7339095491280219  0.0402187246911794   F   F   F
  0.2501421568627507  0.7340635091997783  0.0402868315550222   F   F   F
  0.3749833333333328  0.7341178480486334  0.0401733201152865   F   F   F
  0.3748810749568889  0.6674532620847486  0.1069365574269057   F   F   F
  0.6252303921568583  0.7340136985883277  0.0403516952348824   F   F   F
  0.7502205882352939  0.7340499244875645  0.0402543997151028   F   F   F
  0.8754117647058806  0.7340408680127553  0.0402479133471161   F   F   F
  0.1872607843137217  0.4337218238012284  0.0400954836994671   F   F   F
  0.0624352941176483  0.8340017087213312  0.0401376450913702   F   F   F
  0.0624725490196099  0.4336751829559589  0.0403289929469324   F   F   F
  0.7503823529411804  0.3336722296395251  0.0401635905633100   F   F   F
  0.1876578431372593  0.0336880485840751  0.0401830496672702   F   F   F
  0.3127049019607924  0.0336102534654614  0.0403322361309222   F   F   F
  0.4375990196078448  0.0337373610894147  0.0402187246911794   F   F   F
  0.5627892156862657  0.0337064785103109  0.0402284542431630   F   F   F
  0.6877794117647085  0.0335992498485709  0.0402511565311059   F   F   F
  0.8127892156862799  0.0337717304113170  0.0401960224032365   F   F   F
  0.9379019607843162  0.0337295272387053  0.0402057519552130   F   F   F
  0.0000153052941201  0.1337075299670403  0.0402057519552130   F   F   F
  0.1250911764705904  0.1337967362439088  0.0402673724510763   F   F   F
  0.2501019607843133  0.1336436818196347  0.0402381837951467   F   F   F
  0.3751794117647052  0.1336396064059642  0.0402608860830824   F   F   F
  0.5002254901960796  0.1337722837619211  0.0402187246911794   F   F   F
  0.6251862745098080  0.1336359838160419  0.0402122383231998   F   F   F
  0.7503529411764660  0.1337143223231436  0.0402219678751763   F   F   F
  0.8753823529411733  0.1337813402367374  0.0402543997151028   F   F   F
  0.0625524509803839  0.2337027852798883  0.0403192633949487   F   F   F
  0.1874745098039270  0.2337317659992735  0.0402284542431630   F   F   F
  0.3127171568627460  0.2336919175101144  0.0402284542431630   F   F   F
  0.4376539215686321  0.2337996895603425  0.0403160202109589   F   F   F
  0.5626323529411721  0.2337258792906454  0.0402154815071967   F   F   F
  0.6878431372549016  0.2336719932655313  0.0401473746433467   F   F   F
  0.8128235294117729  0.2336873892727098  0.0402835883710324   F   F   F
  0.9377941176470586  0.2337322188230146  0.0402381837951467   F   F   F
  0.0000996401960833  0.3337483040279210  0.0402219678751763   F   F   F
  0.1249196078431396  0.3336504940999845  0.0402900747390191   F   F   F
  0.2500534313725495  0.3337623415638760  0.0401830496672702   F   F   F
  0.3752936274509864  0.3337419644955588  0.0402738588190559   F   F   F
  0.5000784313725433  0.3337795488660191  0.0404035861787548   F   F   F
  0.6251372549019578  0.3337084555387619  0.0401603473793202   F   F   F
  0.8754754901960737  0.3337750206286145  0.0403873702587916   F   F   F
  0.1877117647058810  0.8340243499083542  0.0401798064832732   F   F   F
  0.5003627450980375  0.7339910574013047  0.0401246723553967   F   F   F
  0.4375955882352969  0.8341828382175152  0.0400922405154773   F   F   F
  0.7502530394540869  0.2668924999981357  0.1069196068738592   F   F   F
  0.8752410322051247  0.2669261846894670  0.1067901118782757   F   F   F
  0.0627031291710480  0.3669472182286597  0.1070445617729945   F   F   F
  0.3126274509804006  0.8340152934335450  0.0403841270748089   F   F   F
  0.3129636434137026  0.3670512108604740  0.1071055756775507   F   F   F
  0.4374883158033569  0.3670240779914806  0.1074806558953227   F   F   F
  0.5627746362466226  0.3668545868038890  0.1069313777024590   F   F   F
  0.6876914618523386  0.3668472209650631  0.1068213402598630   F   F   F
  0.8125982137506966  0.3667332589759482  0.1067065214868492   F   F   F
  0.9383389070697987  0.3671123615427732  0.1071380466968606   F   F   F
  0.0002481690773095  0.4670632309083373  0.1070248119780928   F   F   F
  0.1250683667442800  0.4669095790405748  0.1069270324699119   F   F   F
  0.2497986273203665  0.4669017695053910  0.1062190251779853   F   F   F
  0.6252858797874339  0.2668913888221809  0.1068478634636705   F   F   F
  0.3752098888107582  0.4666161426943063  0.1069093343968177   F   F   F
  0.6253552299887204  0.4667948125264232  0.1067364265355408   F   F   F
  0.7501501505862791  0.4667916466824735  0.1067217151620810   F   F   F
  0.8753141233137143  0.4669089925732024  0.1064996924733492   F   F   F
  0.0626318346719685  0.5670086220253481  0.1069716900119531   F   F   F
  0.1874751432907189  0.5669675494701423  0.1067735873211078   F   F   F
  0.3124433166162248  0.5673553158274700  0.1061395427453746   F   F   F
  0.4377381765180672  0.5670309406751457  0.1064890745830311   F   F   F
  0.5628638058700091  0.5669167774457833  0.1067982456754208   F   F   F
  0.6877691559245704  0.5669450968298904  0.1068314165053152   F   F   F
  0.8126435685472160  0.5669938516385926  0.1066179740655429   F   F   F
  0.9377016272630456  0.5671091816590064  0.1062130444207412   F   F   F
  0.0002360820920089  0.6671308507019447  0.1070068370546906   F   F   F
  0.1250886801016904  0.6670209804647413  0.1068596599972693   F   F   F
  0.5003627017093848  0.4667807287930543  0.1067433560995354   F   F   F
  0.5002675032205914  0.2669358311922139  0.1069705785147690   F   F   F
  0.1874893993846598  0.3667964984249110  0.1066173239460184   F   F   F
  0.2501965533220414  0.2669843335019593  0.1068588980157728   F   F   F
  0.2502082635906504  0.0669528784631908  0.1069488026955199   F   F   F
  0.3751924671540863  0.2669716840699579  0.1070192897819666   F   F   F
  0.0003181883934573  0.0670132404773156  0.1069908232851162   F   F   F
  0.8754117647058806  0.9341934895375417  0.0401506178273365   F   F   F
  0.7501813725490223  0.9341029247894426  0.0401830496672702   F   F   F
  0.6252598039215727  0.9340168882787552  0.0403225065789528   F   F   F
  0.3752405426848213  0.0669502831102236  0.1069766466171345   F   F   F
  0.5002843137254942  0.9341617918757095  0.0401700769312967   F   F   F
  0.2502127450980325  0.9340485859405874  0.0402998042910028   F   F   F
  0.1251475490196086  0.9341119812642518  0.0400987268834641   F   F   F
  0.9379705882352951  0.8340243499083542  0.0402771020030457   F   F   F
  0.8127058823529438  0.8340696322824002  0.0401700769312967   F   F   F
  0.6877254901960796  0.8340243499083542  0.0403160202109589   F   F   F
  0.5628676470588232  0.8340515193327818  0.0402543997151028   F   F   F
  0.3750598039215731  0.9341753765879233  0.0402219678751763   F   F   F
  0.5002444805549970  0.0669322046881362  0.1069117852834296   F   F   F
  0.1252444361146701  0.0669861716509175  0.1068995445414060   F   F   F
  0.7503086122959104  0.0669303564279318  0.1069201278546785   F   F   F
  0.0003079262380012  0.2670043823932247  0.1070159916557429   F   F   F
  0.9378612898784411  0.1669889728024572  0.1069419923211825   F   F   F
  0.8128534464412454  0.1669257292167856  0.1069635681233478   F   F   F
  0.6252904640092041  0.0668950014547107  0.1069459292286794   F   F   F
  0.6878104957338778  0.1669035917126678  0.1068711762699834   F   F   F
  0.5627710568249569  0.1669112417823939  0.1068987369328909   F   F   F
  0.4377366458842928  0.1669475867742563  0.1069485747998371   F   F   F
  0.3127188908155247  0.1669550530348616  0.1069262358083805   F   F   F
  0.1877458117391129  0.1669721439217753  0.1069310891238118   F   F   F
  0.0627576535624712  0.1669409262050436  0.1069872879293428   F   F   F
  0.8753336318521150  0.0669597811246874  0.1069010677766968   F   F   F
  0.1252098238350143  0.2669151460218586  0.1070076289930526   F   F   F
  0.1624820258971009  0.4516972617270082  0.2745844903648622   T   T   T
  0.7192184294131903  0.4520583174097086  0.2746721594131715   T   T   T
  0.1593933182178476  0.3506869768915965  0.2681148741795671   T   T   T
  0.7223926286021404  0.3510630603320808  0.2681547741368365   T   T   T
  0.1594708390896072  0.5529280435224868  0.2703197578343972   T   T   T
  0.7220890315516090  0.5532739239260750  0.2701935449160746   T   T   T
  0.3709362886845886  0.4518614563572232  0.2734220940899020   T   T   T
  0.5107345326659403  0.4519545034175050  0.2736111795284695   T   T   T
  0.4053558910445380  0.3953110570458803  0.2721373005631171   T   T   T
  0.4763835752930599  0.3953741720127764  0.2721324214288125   T   T   T
  0.4052813604655769  0.5085227486051149  0.2727714459149153   T   T   T
  0.4763109386283109  0.5085661261825339  0.2729455914783551   T   T   T
  0.3005258011727699  0.4517950649838521  0.2736602891047233   T   T   T
  0.5811387763242347  0.4519804206068344  0.2739150506725953   T   T   T
  0.2656767746027439  0.3961208753523909  0.2719802424777962   T   T   T
  0.6160684742970227  0.3963712529363897  0.2721555329774709   T   T   T
  0.2657414899140833  0.5074237954421605  0.2733720151805870   T   T   T
  0.6158660282175625  0.5076571949593581  0.2735619661056810   T   T   T
  0.3684812119486680  0.3410196812870845  0.2693979782211502   T   T   T
  0.5133395519316092  0.3411832421158229  0.2691229225319524   T   T   T
  0.3683542820481172  0.5627199855630530  0.2702802198983238   T   T   T
  0.5131692785336374  0.5627994685301227  0.2706147937806616   T   T   T
  0.3003121655881995  0.3413502892311868  0.2692598881753628   T   T   T
  0.5815320809625283  0.3416029503407305  0.2691148733567261   T   T   T
  0.3001881118604430  0.5622415767846854  0.2707645732651136   T   T   T
  0.5813315572639148  0.5624251156461834  0.2710738776812701   T   T   T
  0.1942226998027453  0.3956081118919474  0.2715515437437592   T   T   T
  0.6875340281934859  0.3959436290933093  0.2716668388905003   T   T   T
  0.1942257594967003  0.5078906901441117  0.2728846629590729   T   T   T
  0.6874035777851227  0.5082061368772938  0.2728811846285118   T   T   T
  0.3932899936864240  0.2974340137432692  0.2677692380192110   T   T   T
  0.4886230499087639  0.2975766381032598  0.2672035530684749   T   T   T
  0.3930908645564884  0.6063321229585816  0.2684350719862770   T   T   T
  0.4883743384482700  0.6063870916247004  0.2687645534273188   T   T   T
  0.2727137052382644  0.2991191419732666  0.2673837920417231   T   T   T
  0.6091628373330230  0.2994103884584666  0.2670484782683887   T   T   T
  0.2724935572924103  0.6044584113744131  0.2692133576318229   T   T   T
  0.6089526219388891  0.6046841904431612  0.2694864243023928   T   T   T

  0.00000000E+00  0.00000000E+00  0.00000000E+00
  0.00000000E+00  0.00000000E+00  0.00000000E+00
  0.00000000E+00  0.00000000E+00  0.00000000E+00
  0.00000000E+00  0.00000000E+00  0.00000000E+00
  0.00000000E+00  0.00000000E+00  0.00000000E+00
  0.00000000E+00  0.00000000E+00  0.00000000E+00
  0.00000000E+00  0.00000000E+00  0.00000000E+00
  0.00000000E+00  0.00000000E+00  0.00000000E+00
  0.00000000E+00  0.00000000E+00  0.00000000E+00
  0.00000000E+00  0.00000000E+00  0.00000000E+00
  0.00000000E+00  0.00000000E+00  0.00000000E+00
  0.00000000E+00  0.00000000E+00  0.00000000E+00
  0.00000000E+00  0.00000000E+00  0.00000000E+00
  0.00000000E+00  0.00000000E+00  0.00000000E+00
  0.00000000E+00  0.00000000E+00  0.00000000E+00
  0.00000000E+00  0.00000000E+00  0.00000000E+00
  0.00000000E+00  0.00000000E+00  0.00000000E+00
  0.00000000E+00  0.00000000E+00  0.00000000E+00
  0.00000000E+00  0.00000000E+00  0.00000000E+00
  0.00000000E+00  0.00000000E+00  0.00000000E+00
  0.00000000E+00  0.00000000E+00  0.00000000E+00
  0.00000000E+00  0.00000000E+00  0.00000000E+00
  0.00000000E+00  0.00000000E+00  0.00000000E+00
  0.00000000E+00  0.00000000E+00  0.00000000E+00
  0.00000000E+00  0.00000000E+00  0.00000000E+00
  0.00000000E+00  0.00000000E+00  0.00000000E+00
  0.00000000E+00  0.00000000E+00  0.00000000E+00
  0.00000000E+00  0.00000000E+00  0.00000000E+00
  0.00000000E+00  0.00000000E+00  0.00000000E+00
  0.00000000E+00  0.00000000E+00  0.00000000E+00
  0.00000000E+00  0.00000000E+00  0.00000000E+00
  0.00000000E+00  0.00000000E+00  0.00000000E+00
  0.00000000E+00  0.00000000E+00  0.00000000E+00
  0.00000000E+00  0.00000000E+00  0.00000000E+00
  0.00000000E+00  0.00000000E+00  0.00000000E+00
  0.00000000E+00  0.00000000E+00  0.00000000E+00
  0.00000000E+00  0.00000000E+00  0.00000000E+00
  0.00000000E+00  0.00000000E+00  0.00000000E+00
  0.00000000E+00  0.00000000E+00  0.00000000E+00
  0.00000000E+00  0.00000000E+00  0.00000000E+00
  0.00000000E+00  0.00000000E+00  0.00000000E+00
  0.00000000E+00  0.00000000E+00  0.00000000E+00
  0.00000000E+00  0.00000000E+00  0.00000000E+00
  0.00000000E+00  0.00000000E+00  0.00000000E+00
  0.00000000E+00  0.00000000E+00  0.00000000E+00
  0.00000000E+00  0.00000000E+00  0.00000000E+00
  0.00000000E+00  0.00000000E+00  0.00000000E+00
  0.00000000E+00  0.00000000E+00  0.00000000E+00
  0.00000000E+00  0.00000000E+00  0.00000000E+00
  0.00000000E+00  0.00000000E+00  0.00000000E+00
  0.00000000E+00  0.00000000E+00  0.00000000E+00
  0.00000000E+00  0.00000000E+00  0.00000000E+00
  0.00000000E+00  0.00000000E+00  0.00000000E+00
  0.00000000E+00  0.00000000E+00  0.00000000E+00
  0.00000000E+00  0.00000000E+00  0.00000000E+00
  0.00000000E+00  0.00000000E+00  0.00000000E+00
  0.00000000E+00  0.00000000E+00  0.00000000E+00
  0.00000000E+00  0.00000000E+00  0.00000000E+00
  0.00000000E+00  0.00000000E+00  0.00000000E+00
  0.00000000E+00  0.00000000E+00  0.00000000E+00
  0.00000000E+00  0.00000000E+00  0.00000000E+00
  0.00000000E+00  0.00000000E+00  0.00000000E+00
  0.00000000E+00  0.00000000E+00  0.00000000E+00
  0.00000000E+00  0.00000000E+00  0.00000000E+00
  0.00000000E+00  0.00000000E+00  0.00000000E+00
  0.00000000E+00  0.00000000E+00  0.00000000E+00
  0.00000000E+00  0.00000000E+00  0.00000000E+00
  0.00000000E+00  0.00000000E+00  0.00000000E+00
  0.00000000E+00  0.00000000E+00  0.00000000E+00
  0.00000000E+00  0.00000000E+00  0.00000000E+00
  0.00000000E+00  0.00000000E+00  0.00000000E+00
  0.00000000E+00  0.00000000E+00  0.00000000E+00
  0.00000000E+00  0.00000000E+00  0.00000000E+00
  0.00000000E+00  0.00000000E+00  0.00000000E+00
  0.00000000E+00  0.00000000E+00  0.00000000E+00
  0.00000000E+00  0.00000000E+00  0.00000000E+00
  0.00000000E+00  0.00000000E+00  0.00000000E+00
  0.00000000E+00  0.00000000E+00  0.00000000E+00
  0.00000000E+00  0.00000000E+00  0.00000000E+00
  0.00000000E+00  0.00000000E+00  0.00000000E+00
  0.00000000E+00  0.00000000E+00  0.00000000E+00
  0.00000000E+00  0.00000000E+00  0.00000000E+00
  0.00000000E+00  0.00000000E+00  0.00000000E+00
  0.00000000E+00  0.00000000E+00  0.00000000E+00
  0.00000000E+00  0.00000000E+00  0.00000000E+00
  0.00000000E+00  0.00000000E+00  0.00000000E+00
  0.00000000E+00  0.00000000E+00  0.00000000E+00
  0.00000000E+00  0.00000000E+00  0.00000000E+00
  0.00000000E+00  0.00000000E+00  0.00000000E+00
  0.00000000E+00  0.00000000E+00  0.00000000E+00
  0.00000000E+00  0.00000000E+00  0.00000000E+00
  0.00000000E+00  0.00000000E+00  0.00000000E+00
  0.00000000E+00  0.00000000E+00  0.00000000E+00
  0.00000000E+00  0.00000000E+00  0.00000000E+00
  0.00000000E+00  0.00000000E+00  0.00000000E+00
  0.00000000E+00  0.00000000E+00  0.00000000E+00
  0.00000000E+00  0.00000000E+00  0.00000000E+00
  0.00000000E+00  0.00000000E+00  0.00000000E+00
  0.00000000E+00  0.00000000E+00  0.00000000E+00
  0.00000000E+00  0.00000000E+00  0.00000000E+00
  0.00000000E+00  0.00000000E+00  0.00000000E+00
  0.00000000E+00  0.00000000E+00  0.00000000E+00
  0.00000000E+00  0.00000000E+00  0.00000000E+00
  0.00000000E+00  0.00000000E+00  0.00000000E+00
  0.00000000E+00  0.00000000E+00  0.00000000E+00
  0.00000000E+00  0.00000000E+00  0.00000000E+00
  0.00000000E+00  0.00000000E+00  0.00000000E+00
  0.00000000E+00  0.00000000E+00  0.00000000E+00
  0.00000000E+00  0.00000000E+00  0.00000000E+00
  0.00000000E+00  0.00000000E+00  0.00000000E+00
  0.00000000E+00  0.00000000E+00  0.00000000E+00
  0.00000000E+00  0.00000000E+00  0.00000000E+00
  0.00000000E+00  0.00000000E+00  0.00000000E+00
  0.00000000E+00  0.00000000E+00  0.00000000E+00
  0.00000000E+00  0.00000000E+00  0.00000000E+00
  0.00000000E+00  0.00000000E+00  0.00000000E+00
  0.00000000E+00  0.00000000E+00  0.00000000E+00
  0.00000000E+00  0.00000000E+00  0.00000000E+00
  0.00000000E+00  0.00000000E+00  0.00000000E+00
  0.00000000E+00  0.00000000E+00  0.00000000E+00
  0.00000000E+00  0.00000000E+00  0.00000000E+00
  0.00000000E+00  0.00000000E+00  0.00000000E+00
  0.00000000E+00  0.00000000E+00  0.00000000E+00
  0.00000000E+00  0.00000000E+00  0.00000000E+00
  0.00000000E+00  0.00000000E+00  0.00000000E+00
  0.00000000E+00  0.00000000E+00  0.00000000E+00
  0.00000000E+00  0.00000000E+00  0.00000000E+00
  0.00000000E+00  0.00000000E+00  0.00000000E+00
  0.00000000E+00  0.00000000E+00  0.00000000E+00
  0.00000000E+00  0.00000000E+00  0.00000000E+00
  0.00000000E+00  0.00000000E+00  0.00000000E+00
  0.00000000E+00  0.00000000E+00  0.00000000E+00
  0.00000000E+00  0.00000000E+00  0.00000000E+00
  0.00000000E+00  0.00000000E+00  0.00000000E+00
  0.00000000E+00  0.00000000E+00  0.00000000E+00
  0.00000000E+00  0.00000000E+00  0.00000000E+00
  0.00000000E+00  0.00000000E+00  0.00000000E+00
  0.00000000E+00  0.00000000E+00  0.00000000E+00
  0.00000000E+00  0.00000000E+00  0.00000000E+00
  0.00000000E+00  0.00000000E+00  0.00000000E+00
  0.00000000E+00  0.00000000E+00  0.00000000E+00
  0.00000000E+00  0.00000000E+00  0.00000000E+00
  0.00000000E+00  0.00000000E+00  0.00000000E+00
  0.00000000E+00  0.00000000E+00  0.00000000E+00
  0.00000000E+00  0.00000000E+00  0.00000000E+00
  0.00000000E+00  0.00000000E+00  0.00000000E+00
  0.00000000E+00  0.00000000E+00  0.00000000E+00
  0.00000000E+00  0.00000000E+00  0.00000000E+00
  0.00000000E+00  0.00000000E+00  0.00000000E+00
  0.00000000E+00  0.00000000E+00  0.00000000E+00
  0.00000000E+00  0.00000000E+00  0.00000000E+00
  0.00000000E+00  0.00000000E+00  0.00000000E+00
  0.00000000E+00  0.00000000E+00  0.00000000E+00
  0.00000000E+00  0.00000000E+00  0.00000000E+00
  0.00000000E+00  0.00000000E+00  0.00000000E+00
  0.00000000E+00  0.00000000E+00  0.00000000E+00
  0.00000000E+00  0.00000000E+00  0.00000000E+00
  0.00000000E+00  0.00000000E+00  0.00000000E+00
  0.00000000E+00  0.00000000E+00  0.00000000E+00
  0.00000000E+00  0.00000000E+00  0.00000000E+00
  0.00000000E+00  0.00000000E+00  0.00000000E+00
  0.00000000E+00  0.00000000E+00  0.00000000E+00
  0.00000000E+00  0.00000000E+00  0.00000000E+00
  0.00000000E+00  0.00000000E+00  0.00000000E+00
  0.00000000E+00  0.00000000E+00  0.00000000E+00
  0.00000000E+00  0.00000000E+00  0.00000000E+00
  0.00000000E+00  0.00000000E+00  0.00000000E+00
  0.00000000E+00  0.00000000E+00  0.00000000E+00
  0.00000000E+00  0.00000000E+00  0.00000000E+00
  0.00000000E+00  0.00000000E+00  0.00000000E+00
  0.00000000E+00  0.00000000E+00  0.00000000E+00
  0.00000000E+00  0.00000000E+00  0.00000000E+00
  0.00000000E+00  0.00000000E+00  0.00000000E+00
  0.00000000E+00  0.00000000E+00  0.00000000E+00
  0.00000000E+00  0.00000000E+00  0.00000000E+00
  0.00000000E+00  0.00000000E+00  0.00000000E+00
  0.00000000E+00  0.00000000E+00  0.00000000E+00
  0.00000000E+00  0.00000000E+00  0.00000000E+00
  0.00000000E+00  0.00000000E+00  0.00000000E+00
  0.00000000E+00  0.00000000E+00  0.00000000E+00
  0.00000000E+00  0.00000000E+00  0.00000000E+00
  0.00000000E+00  0.00000000E+00  0.00000000E+00
  0.00000000E+00  0.00000000E+00  0.00000000E+00
  0.00000000E+00  0.00000000E+00  0.00000000E+00
  0.00000000E+00  0.00000000E+00  0.00000000E+00
  0.00000000E+00  0.00000000E+00  0.00000000E+00
  0.00000000E+00  0.00000000E+00  0.00000000E+00
  0.00000000E+00  0.00000000E+00  0.00000000E+00
  0.00000000E+00  0.00000000E+00  0.00000000E+00
  0.00000000E+00  0.00000000E+00  0.00000000E+00
  0.00000000E+00  0.00000000E+00  0.00000000E+00
  0.00000000E+00  0.00000000E+00  0.00000000E+00
  0.00000000E+00  0.00000000E+00  0.00000000E+00
  0.00000000E+00  0.00000000E+00  0.00000000E+00