 O  C  H
 1.0000000000000000
    24.0270328647999989    0.0000000000000000    0.0000000000000000
     0.0000000000000000   24.0270328647999989    0.0000000000000000
     0.0000000000000000    0.0000000000000000   18.0000000000000000
 O   C   H
   6  24   8
Cartesian
  6.3350451778284222 12.0085515737598225  3.1124529068536191
 17.6924678095566463 12.0165250002927682  3.1151560852274525
  6.2720355411716548  9.7778760192769099  2.9129694301151670
 17.7572214730112279  9.7861813135199789  2.9141997012734340
  6.2736169669555508 14.2440965054498250  2.9809545848248113
 17.7510280931803877 14.2517348064635883  2.9770629487469975
 10.5875121386931710 12.0121775901441428  3.0766117002602620
 13.4393963159127452 12.0142324086522319  3.0824419411286144
 11.2896720268361381 10.7633384888030843  3.0369965094554896
 12.7386367855059852 10.7647322975029258  3.0368460667326644
 11.2881516030253319 13.2634656120394538  3.0565496816856701
 12.7371549975451064 13.2644235471815932  3.0619192679885661
  9.1511381934520699 12.0107114264376573  3.0839561807267106
 14.8756428865419519 12.0148047547333476  3.0918114725775574
  8.4402180514235390 10.7812222310660548  3.0321537966866998
 15.5882087251868260 10.7867514814480998  3.0375586858351191
  8.4415382437748629 13.2391967174400733  3.0750675723467502
 15.5840788251658395 13.2443510301745544  3.0809244995372023
 10.5374285732803905  9.5643868679683788  2.9525325275078576
 13.4925387089323898  9.5679988877041140  2.9440514888177152
 10.5348392033091542 14.4603383047517031  2.9797354761906831
 13.4890651316137653 14.4620935786025697  2.9900516926961274
  9.1467800275268338  9.5716878973658162  2.9482746733094505
 14.8836663011631405  9.5772675763217379  2.9438033013807754
  9.1442493314806015 14.4497732937858050  2.9946699778380630
 14.8795756177114260 14.4538265013607372  3.0042070382351991
  6.9825549255035675 10.7698985434009131  3.0189353442329914
 17.0461060246746747 10.7773079871066315  3.0224903428703538
  6.9826173432602499 13.2495074555976480  3.0600406043227721
 17.0434448363440652 13.2564736701529018  3.0599333538377813
 11.0435277207306122  8.6018563368028715  2.9023121204727378
 12.9883220676663456  8.6050060029366033  2.8848698491726346
 11.0394654864799264 15.4234533867997659  2.9228423761906548
 12.9832483538722716 15.4246672954623687  2.9330015728875480
  8.5837714363881581  8.6390701151319718  2.8904273190437291
 15.4473337311212333  8.6455018999341160  2.8800882888157737
  8.5792804182927345 15.3820750000962079  2.9468399553394793
 15.4430453370809015 15.3870610255310538  2.9552596648348395
